p cnf 843 2474
-1 5 0 
1 808 0 
-7 -8 0 
-97 98 0 
-97 139 0 
-98 99 0 
-98 127 0 
-99 100 0 
-99 115 0 
-100 101 0 
-100 107 0 
-101 -102 0 
-102 103 0 
-103 -27 -104 0 
-103 27 104 0 
-104 -105 0 
-105 -106 0 
-8 -9 0 
-107 -108 0 
-108 -109 -114 0 
-108 109 114 0 
-109 -29 -110 0 
-109 29 110 0 
-110 -111 -113 0 
-110 111 113 0 
-111 -112 0 
-113 105 0 
-114 104 0 
-114 27 0 
-115 -116 0 
-116 -117 -122 0 
-116 117 122 0 
-117 -31 -118 0 
-117 31 118 0 
-118 -119 -121 0 
-118 119 121 0 
-119 -120 0 
-121 111 0 
-121 113 0 
-122 123 126 0 
-123 124 125 0 
-124 110 0 
-124 29 0 
-125 110 0 
-125 114 0 
-126 114 0 
-126 29 0 
-10 -11 58 0 
-10 11 745 0 
-127 -128 0 
-128 -129 -134 0 
-128 129 134 0 
-129 -33 -130 0 
-129 33 130 0 
-130 -131 -133 0 
-130 131 133 0 
-131 -132 0 
-133 119 0 
-133 121 0 
-134 135 138 0 
-135 136 137 0 
-136 118 0 
-136 31 0 
-11 12 0 
-11 56 0 
-137 118 0 
-137 122 0 
-138 122 0 
-138 31 0 
-139 -140 0 
-140 -141 -146 0 
-140 141 146 0 
-141 -35 -142 0 
-141 35 142 0 
-142 -143 -145 0 
-142 143 145 0 
-143 -144 0 
-145 131 0 
-145 133 0 
-146 147 150 0 
-12 13 0 
-12 54 0 
-147 148 149 0 
-148 130 0 
-148 33 0 
-149 130 0 
-149 134 0 
-150 134 0 
-150 33 0 
-151 -152 0 
-152 -153 -158 0 
-152 153 158 0 
-153 -37 -154 0 
-153 37 154 0 
-154 -155 -157 0 
-154 155 157 0 
-155 -156 0 
-13 14 0 
-13 52 0 
-157 143 0 
-157 145 0 
-158 159 162 0 
-159 160 161 0 
-160 142 0 
-160 35 0 
-161 142 0 
-161 146 0 
-162 146 0 
-162 35 0 
-163 -164 0 
-164 -165 -170 0 
-164 165 170 0 
-165 -39 -166 0 
-165 39 166 0 
-166 -167 -169 0 
-166 167 169 0 
-14 15 0 
-14 50 0 
-167 -168 0 
-169 155 0 
-169 157 0 
-170 171 174 0 
-171 172 173 0 
-172 154 0 
-172 37 0 
-173 154 0 
-173 158 0 
-174 158 0 
-174 37 0 
-175 -176 0 
-176 -177 -182 0 
-176 177 182 0 
-15 16 0 
-15 48 0 
-177 -41 -178 0 
-177 41 178 0 
-178 -179 -181 0 
-178 179 181 0 
-179 -180 0 
-181 167 0 
-181 169 0 
-182 183 186 0 
-183 184 185 0 
-184 166 0 
-184 39 0 
-185 166 0 
-185 170 0 
-186 170 0 
-186 39 0 
-16 17 0 
-16 46 0 
-187 -188 0 
-188 -189 -194 0 
-188 189 194 0 
-189 -43 -190 0 
-189 43 190 0 
-190 -191 -193 0 
-190 191 193 0 
-191 -192 0 
-193 179 0 
-193 181 0 
-194 195 198 0 
-195 196 197 0 
-196 178 0 
-196 41 0 
-1 -2 0 
-17 18 0 
-17 44 0 
-197 178 0 
-197 182 0 
-198 182 0 
-198 41 0 
-199 -200 0 
-200 -201 -206 0 
-200 201 206 0 
-201 -45 -202 0 
-201 45 202 0 
-202 -203 -205 0 
-202 203 205 0 
-203 -204 0 
-205 191 0 
-205 193 0 
-206 207 210 0 
-18 19 0 
-18 42 0 
-207 208 209 0 
-208 190 0 
-208 43 0 
-209 190 0 
-209 194 0 
-210 194 0 
-210 43 0 
-211 -212 0 
-212 -213 -218 0 
-212 213 218 0 
-213 -47 -214 0 
-213 47 214 0 
-214 -215 -217 0 
-214 215 217 0 
-215 -216 0 
-19 20 0 
-19 40 0 
-217 203 0 
-217 205 0 
-218 219 222 0 
-219 220 221 0 
-220 202 0 
-220 45 0 
-221 202 0 
-221 206 0 
-222 206 0 
-222 45 0 
-223 -224 0 
-224 -225 -230 0 
-224 225 230 0 
-225 -49 -226 0 
-225 49 226 0 
-226 -227 -229 0 
-226 227 229 0 
-20 21 0 
-20 38 0 
-227 -228 0 
-229 215 0 
-229 217 0 
-230 231 234 0 
-231 232 233 0 
-232 214 0 
-232 47 0 
-233 214 0 
-233 218 0 
-234 218 0 
-234 47 0 
-235 -236 0 
-236 -237 -242 0 
-236 237 242 0 
-21 22 0 
-21 36 0 
-237 -51 -238 0 
-237 51 238 0 
-238 -239 -241 0 
-238 239 241 0 
-239 -240 0 
-241 227 0 
-241 229 0 
-242 243 246 0 
-243 244 245 0 
-244 226 0 
-244 49 0 
-245 226 0 
-245 230 0 
-246 230 0 
-246 49 0 
-22 23 0 
-22 34 0 
-247 -248 0 
-248 -249 -254 0 
-248 249 254 0 
-249 -53 -250 0 
-249 53 250 0 
-250 -251 -253 0 
-250 251 253 0 
-251 -252 0 
-253 239 0 
-253 241 0 
-254 255 258 0 
-255 256 257 0 
-256 238 0 
-256 51 0 
-23 24 0 
-23 32 0 
-257 238 0 
-257 242 0 
-258 242 0 
-258 51 0 
-259 -260 0 
-260 -261 -266 0 
-260 261 266 0 
-261 -55 -262 0 
-261 55 262 0 
-262 -263 -265 0 
-262 263 265 0 
-263 -264 0 
-265 251 0 
-265 253 0 
-266 267 270 0 
-24 25 0 
-24 30 0 
-267 268 269 0 
-268 250 0 
-268 53 0 
-269 250 0 
-269 254 0 
-270 254 0 
-270 53 0 
-271 -272 0 
-272 -273 -278 0 
-272 273 278 0 
-273 -57 -274 0 
-273 57 274 0 
-274 -275 -277 0 
-274 275 277 0 
-275 -276 0 
-25 26 0 
-25 28 0 
-277 263 0 
-277 265 0 
-278 279 282 0 
-279 280 281 0 
-280 262 0 
-280 55 0 
-281 262 0 
-281 266 0 
-282 266 0 
-282 55 0 
-283 -284 285 0 
-283 284 628 0 
-284 -82 0 
-285 -286 287 0 
-285 286 0 
-286 70 0 
-26 27 0 
-287 -288 289 0 
-287 288 620 0 
-288 -77 0 
-289 -290 321 0 
-289 290 586 0 
-290 291 0 
-290 320 0 
-291 292 0 
-291 319 0 
-292 293 0 
-292 318 0 
-293 294 0 
-293 317 0 
-294 295 0 
-294 316 0 
-295 296 0 
-295 315 0 
-296 297 0 
-296 314 0 
-2 -3 0 
-297 298 0 
-297 313 0 
-298 299 0 
-298 312 0 
-299 300 0 
-299 311 0 
-300 301 0 
-300 310 0 
-301 302 0 
-301 309 0 
-302 303 0 
-302 308 0 
-303 304 0 
-303 307 0 
-304 305 0 
-304 306 0 
-305 106 0 
-306 112 0 
-28 29 0 
-307 120 0 
-308 132 0 
-309 144 0 
-310 156 0 
-311 168 0 
-312 180 0 
-313 192 0 
-314 204 0 
-315 216 0 
-316 228 0 
-317 240 0 
-318 252 0 
-319 264 0 
-320 276 0 
-321 -322 331 0 
-321 322 0 
-322 -323 0 
-323 324 0 
-324 -325 -328 0 
-324 325 328 0 
-325 -326 0 
-326 -327 0 
-30 31 0 
-328 -329 0 
-329 -330 0 
-331 -332 338 0 
-331 332 580 0 
-332 333 0 
-333 334 0 
-334 -77 -335 0 
-334 77 335 0 
-335 -336 0 
-336 -337 0 
-338 -339 343 0 
-338 339 577 0 
-339 340 0 
-340 -341 0 
-341 -342 0 
-343 -344 541 0 
-343 344 543 0 
-344 345 0 
-344 529 0 
-345 346 0 
-345 517 0 
-346 347 0 
-346 505 0 
-32 33 0 
-347 348 0 
-347 493 0 
-348 349 0 
-348 481 0 
-349 350 0 
-349 469 0 
-350 351 0 
-350 457 0 
-351 352 0 
-351 445 0 
-352 353 0 
-352 433 0 
-353 354 0 
-353 421 0 
-354 355 0 
-354 409 0 
-355 356 0 
-355 397 0 
-356 357 0 
-356 385 0 
-357 358 0 
-357 373 0 
-358 359 0 
-358 365 0 
-359 -360 0 
-360 361 0 
-361 -106 -362 0 
-361 106 362 0 
-362 -363 0 
-363 -364 0 
-365 -366 0 
-366 -367 -372 0 
-366 367 372 0 
-34 35 0 
-367 -112 -368 0 
-367 112 368 0 
-368 -369 -371 0 
-368 369 371 0 
-369 -370 0 
-371 363 0 
-372 106 0 
-372 362 0 
-373 -374 0 
-374 -375 -380 0 
-374 375 380 0 
-375 -120 -376 0 
-375 120 376 0 
-376 -377 -379 0 
-376 377 379 0 
-377 -378 0 
-379 369 0 
-379 371 0 
-380 381 384 0 
-381 382 383 0 
-382 112 0 
-382 368 0 
-383 368 0 
-383 372 0 
-384 112 0 
-384 372 0 
-385 -386 0 
-386 -387 -392 0 
-386 387 392 0 
-36 37 0 
-387 -132 -388 0 
-387 132 388 0 
-388 -389 -391 0 
-388 389 391 0 
-389 -390 0 
-391 377 0 
-391 379 0 
-392 393 396 0 
-393 394 395 0 
-394 120 0 
-394 376 0 
-395 376 0 
-395 380 0 
-396 120 0 
-396 380 0 
-3 -4 0 
-397 -398 0 
-398 -399 -404 0 
-398 399 404 0 
-399 -144 -400 0 
-399 144 400 0 
-400 -401 -403 0 
-400 401 403 0 
-401 -402 0 
-403 389 0 
-403 391 0 
-404 405 408 0 
-405 406 407 0 
-406 132 0 
-406 388 0 
-38 39 0 
-407 388 0 
-407 392 0 
-408 132 0 
-408 392 0 
-409 -410 0 
-410 -411 -416 0 
-410 411 416 0 
-411 -156 -412 0 
-411 156 412 0 
-412 -413 -415 0 
-412 413 415 0 
-413 -414 0 
-415 401 0 
-415 403 0 
-416 417 420 0 
-417 418 419 0 
-418 144 0 
-418 400 0 
-419 400 0 
-419 404 0 
-420 144 0 
-420 404 0 
-421 -422 0 
-422 -423 -428 0 
-422 423 428 0 
-423 -168 -424 0 
-423 168 424 0 
-424 -425 -427 0 
-424 425 427 0 
-425 -426 0 
-40 41 0 
-427 413 0 
-427 415 0 
-428 429 432 0 
-429 430 431 0 
-430 156 0 
-430 412 0 
-431 412 0 
-431 416 0 
-432 156 0 
-432 416 0 
-433 -434 0 
-434 -435 -440 0 
-434 435 440 0 
-435 -180 -436 0 
-435 180 436 0 
-436 -437 -439 0 
-436 437 439 0 
-437 -438 0 
-439 425 0 
-439 427 0 
-440 441 444 0 
-441 442 443 0 
-442 168 0 
-442 424 0 
-443 424 0 
-443 428 0 
-444 168 0 
-444 428 0 
-445 -446 0 
-446 -447 -452 0 
-446 447 452 0 
-42 43 0 
-447 -192 -448 0 
-447 192 448 0 
-448 -449 -451 0 
-448 449 451 0 
-449 -450 0 
-451 437 0 
-451 439 0 
-452 453 456 0 
-453 454 455 0 
-454 180 0 
-454 436 0 
-455 436 0 
-455 440 0 
-456 180 0 
-456 440 0 
-457 -458 0 
-458 -459 -464 0 
-458 459 464 0 
-459 -204 -460 0 
-459 204 460 0 
-460 -461 -463 0 
-460 461 463 0 
-461 -462 0 
-463 449 0 
-463 451 0 
-464 465 468 0 
-465 466 467 0 
-466 192 0 
-466 448 0 
-44 45 0 
-467 448 0 
-467 452 0 
-468 192 0 
-468 452 0 
-469 -470 0 
-470 -471 -476 0 
-470 471 476 0 
-471 -216 -472 0 
-471 216 472 0 
-472 -473 -475 0 
-472 473 475 0 
-473 -474 0 
-475 461 0 
-475 463 0 
-476 477 480 0 
-477 478 479 0 
-478 204 0 
-478 460 0 
-479 460 0 
-479 464 0 
-480 204 0 
-480 464 0 
-481 -482 0 
-482 -483 -488 0 
-482 483 488 0 
-483 -228 -484 0 
-483 228 484 0 
-484 -485 -487 0 
-484 485 487 0 
-485 -486 0 
-46 47 0 
-487 473 0 
-487 475 0 
-488 489 492 0 
-489 490 491 0 
-490 216 0 
-490 472 0 
-491 472 0 
-491 476 0 
-492 216 0 
-492 476 0 
-493 -494 0 
-494 -495 -500 0 
-494 495 500 0 
-495 -240 -496 0 
-495 240 496 0 
-496 -497 -499 0 
-496 497 499 0 
-497 -498 0 
-499 485 0 
-499 487 0 
-500 501 504 0 
-501 502 503 0 
-502 228 0 
-502 484 0 
-503 484 0 
-503 488 0 
-504 228 0 
-504 488 0 
-505 -506 0 
-506 -507 -512 0 
-506 507 512 0 
-48 49 0 
-507 -252 -508 0 
-507 252 508 0 
-508 -509 -511 0 
-508 509 511 0 
-509 -510 0 
-511 497 0 
-511 499 0 
-512 513 516 0 
-513 514 515 0 
-514 240 0 
-514 496 0 
-515 496 0 
-515 500 0 
-516 240 0 
-516 500 0 
-517 -518 0 
-518 -519 -524 0 
-518 519 524 0 
-519 -264 -520 0 
-519 264 520 0 
-520 -521 -523 0 
-520 521 523 0 
-521 -522 0 
-523 509 0 
-523 511 0 
-524 525 528 0 
-525 526 527 0 
-526 252 0 
-526 508 0 
-50 51 0 
-527 508 0 
-527 512 0 
-528 252 0 
-528 512 0 
-529 -530 0 
-530 -531 -536 0 
-530 531 536 0 
-531 -276 -532 0 
-531 276 532 0 
-532 -533 -535 0 
-532 533 535 0 
-533 -534 0 
-535 521 0 
-535 523 0 
-536 537 540 0 
-537 538 539 0 
-538 264 0 
-538 520 0 
-539 520 0 
-539 524 0 
-540 264 0 
-540 524 0 
-541 542 0 
-542 328 0 
-543 -544 575 0 
-543 544 0 
-544 545 0 
-544 574 0 
-545 546 0 
-545 573 0 
-546 547 0 
-546 572 0 
-52 53 0 
-547 548 0 
-547 571 0 
-548 549 0 
-548 570 0 
-549 550 0 
-549 569 0 
-550 551 0 
-550 568 0 
-551 552 0 
-551 567 0 
-552 553 0 
-552 566 0 
-553 554 0 
-553 565 0 
-554 555 0 
-554 564 0 
-555 556 0 
-555 563 0 
-556 557 0 
-556 562 0 
-557 558 0 
-557 561 0 
-558 559 0 
-558 560 0 
-559 -364 0 
-560 -370 0 
-561 -378 0 
-562 -390 0 
-563 -402 0 
-564 -414 0 
-565 -426 0 
-566 -438 0 
-54 55 0 
-567 -450 0 
-568 -462 0 
-569 -474 0 
-570 -486 0 
-571 -498 0 
-572 -510 0 
-573 -522 0 
-574 -534 0 
-575 -576 0 
-576 -328 0 
-577 -344 541 0 
-577 344 578 0 
-578 -544 579 0 
-578 544 0 
-579 576 0 
-580 -581 577 0 
-580 581 584 0 
-581 -582 0 
-582 583 0 
-583 -82 -340 0 
-583 82 340 0 
-584 -344 541 0 
-584 344 585 0 
-585 -544 541 0 
-585 544 0 
-586 -322 587 0 
-586 322 0 
-56 57 0 
-587 -344 541 0 
-587 344 588 0 
-588 -589 541 0 
-588 589 0 
-589 590 0 
-589 619 0 
-590 591 0 
-590 618 0 
-591 592 0 
-591 617 0 
-592 593 0 
-592 616 0 
-593 594 0 
-593 615 0 
-594 595 0 
-594 614 0 
-595 596 0 
-595 613 0 
-596 597 0 
-596 612 0 
-597 598 0 
-597 611 0 
-598 599 0 
-598 610 0 
-599 600 0 
-599 609 0 
-600 601 0 
-600 608 0 
-601 602 0 
-601 607 0 
-602 603 0 
-602 606 0 
-603 604 0 
-603 605 0 
-604 360 0 
-605 366 0 
-606 374 0 
-58 -59 63 0 
-58 59 738 0 
-607 386 0 
-608 398 0 
-609 410 0 
-610 422 0 
-611 434 0 
-612 446 0 
-613 458 0 
-614 470 0 
-615 482 0 
-616 494 0 
-59 60 0 
-617 506 0 
-618 518 0 
-619 530 0 
-620 -290 621 0 
-620 290 625 0 
-621 -322 622 0 
-621 322 0 
-622 -332 623 0 
-622 332 624 0 
-623 -344 541 0 
-623 344 0 
-624 -581 577 0 
-624 581 623 0 
-625 -322 626 0 
-625 322 0 
-626 -332 623 0 
-626 332 627 0 
-60 -61 0 
-627 -581 587 0 
-627 581 623 0 
-628 -286 629 0 
-628 286 0 
-629 -288 630 0 
-629 288 634 0 
-630 -290 631 0 
-630 290 586 0 
-631 -322 632 0 
-631 322 0 
-632 -332 338 0 
-632 332 633 0 
-633 -581 584 0 
-633 581 577 0 
-634 -290 635 0 
-634 290 639 0 
-635 -322 636 0 
-635 322 0 
-636 -332 623 0 
-636 332 637 0 
-61 -62 0 
-637 -638 577 0 
-637 638 623 0 
-638 582 0 
-639 -322 640 0 
-639 322 0 
-640 -332 623 0 
-640 332 641 0 
-641 -638 587 0 
-641 638 623 0 
-642 -643 674 0 
-642 643 0 
-643 644 0 
-643 673 0 
-644 645 0 
-644 672 0 
-645 646 0 
-645 671 0 
-646 647 0 
-646 670 0 
-647 648 0 
-647 669 0 
-648 649 0 
-648 668 0 
-649 650 0 
-649 667 0 
-650 651 0 
-650 666 0 
-651 652 0 
-651 665 0 
-652 653 0 
-652 664 0 
-653 654 0 
-653 663 0 
-654 655 0 
-654 662 0 
-655 656 0 
-655 661 0 
-656 657 0 
-656 660 0 
-63 -64 73 0 
-63 64 0 
-657 658 0 
-657 659 0 
-658 -106 0 
-659 -112 0 
-660 -120 0 
-661 -132 0 
-662 -144 0 
-663 -156 0 
-664 -168 0 
-665 -180 0 
-666 -192 0 
-64 -65 0 
-667 -204 0 
-668 -216 0 
-669 -228 0 
-670 -240 0 
-671 -252 0 
-672 -264 0 
-673 -276 0 
-674 -675 0 
-674 675 676 0 
-675 -70 0 
-676 -284 677 0 
-676 284 706 0 
-65 66 0 
-677 -286 287 0 
-677 286 678 0 
-678 -288 679 0 
-678 288 695 0 
-679 -290 680 0 
-679 290 687 0 
-680 -322 681 0 
-680 322 0 
-681 -332 682 0 
-681 332 685 0 
-682 -339 584 0 
-682 339 683 0 
-683 -344 541 0 
-683 344 684 0 
-684 544 0 
-685 -581 686 0 
-685 581 584 0 
-686 344 585 0 
-66 -67 -70 0 
-66 67 70 0 
-687 -322 688 0 
-687 322 0 
-688 -332 689 0 
-688 332 692 0 
-689 -339 587 0 
-689 339 690 0 
-690 -344 541 0 
-690 344 691 0 
-691 589 0 
-692 -581 693 0 
-692 581 587 0 
-693 344 694 0 
-694 -589 579 0 
-694 589 0 
-695 -290 696 0 
-695 290 702 0 
-696 -322 697 0 
-696 322 0 
-67 -68 0 
-697 -332 698 0 
-697 332 700 0 
-698 -339 623 0 
-698 339 699 0 
-699 344 0 
-700 -581 701 0 
-700 581 623 0 
-701 344 684 0 
-702 -322 703 0 
-702 322 0 
-703 -332 698 0 
-703 332 704 0 
-704 -581 705 0 
-704 581 623 0 
-705 344 691 0 
-706 -286 629 0 
-706 286 707 0 
-68 -69 0 
-707 -288 708 0 
-707 288 720 0 
-708 -290 709 0 
-708 290 712 0 
-709 -322 710 0 
-709 322 0 
-710 -711 686 0 
-710 711 584 0 
-711 -333 0 
-712 -322 713 0 
-712 322 0 
-713 -332 714 0 
-713 332 718 0 
-714 -339 715 0 
-714 339 717 0 
-715 -344 541 0 
-715 344 716 0 
-716 -589 575 0 
-716 589 0 
-717 -344 541 0 
-717 344 694 0 
-718 -581 719 0 
-718 581 693 0 
-719 344 588 0 
-720 -290 721 0 
-720 290 725 0 
-721 -322 722 0 
-721 322 0 
-722 -332 698 0 
-722 332 723 0 
-723 -638 724 0 
-723 638 699 0 
-724 -344 579 0 
-724 344 684 0 
-725 -322 726 0 
-725 322 0 
-726 -332 698 0 
-726 332 727 0 
-70 -71 0 
-727 -638 728 0 
-727 638 699 0 
-728 -344 579 0 
-728 344 691 0 
-729 -86 283 0 
-729 86 730 0 
-730 -643 731 0 
-730 643 0 
-731 -675 676 0 
-731 675 0 
-732 -733 729 0 
-732 733 736 0 
-733 -734 0 
-734 735 0 
-735 -2 -82 0 
-735 2 82 0 
-736 -86 283 0 
-736 86 737 0 
-71 -72 0 
-737 -643 283 0 
-737 643 0 
-738 -64 739 0 
-738 64 0 
-739 -74 740 0 
-739 74 743 0 
-740 -81 736 0 
-740 81 741 0 
-741 -86 283 0 
-741 86 742 0 
-742 -643 676 0 
-742 643 0 
-743 -733 744 0 
-743 733 736 0 
-744 -86 676 0 
-744 86 737 0 
-745 -59 746 0 
-745 59 780 0 
-746 -64 747 0 
-746 64 0 
-747 -86 283 0 
-747 86 748 0 
-748 -749 283 0 
-748 749 0 
-749 750 0 
-749 779 0 
-750 751 0 
-750 778 0 
-751 752 0 
-751 777 0 
-752 753 0 
-752 776 0 
-753 754 0 
-753 775 0 
-754 755 0 
-754 774 0 
-755 756 0 
-755 773 0 
-756 757 0 
-756 772 0 
-73 -74 80 0 
-73 74 732 0 
-757 758 0 
-757 771 0 
-758 759 0 
-758 770 0 
-759 760 0 
-759 769 0 
-760 761 0 
-760 768 0 
-761 762 0 
-761 767 0 
-762 763 0 
-762 766 0 
-763 764 0 
-763 765 0 
-764 102 0 
-765 108 0 
-766 116 0 
-74 75 0 
-767 128 0 
-768 140 0 
-769 152 0 
-770 164 0 
-771 176 0 
-772 188 0 
-773 200 0 
-774 212 0 
-775 224 0 
-776 236 0 
-75 76 0 
-777 248 0 
-778 260 0 
-779 272 0 
-780 -64 781 0 
-780 64 0 
-781 -74 782 0 
-781 74 785 0 
-782 -81 747 0 
-782 81 783 0 
-783 -86 283 0 
-783 86 784 0 
-784 -749 676 0 
-784 749 0 
-785 -733 786 0 
-785 733 747 0 
-786 -86 676 0 
-786 86 787 0 
-76 -7 -77 0 
-76 7 77 0 
-787 -749 731 0 
-787 749 0 
-788 -11 789 0 
-788 11 800 0 
-789 -59 790 0 
-789 59 794 0 
-790 -64 791 0 
-790 64 0 
-791 -74 792 0 
-791 74 793 0 
-792 -86 283 0 
-792 86 0 
-793 -733 729 0 
-793 733 792 0 
-794 -64 795 0 
-794 64 0 
-795 -74 796 0 
-795 74 798 0 
-796 -81 792 0 
-796 81 797 0 
-5 -6 10 0 
-5 6 788 0 
-77 -78 0 
-797 -86 676 0 
-797 86 0 
-798 -733 799 0 
-798 733 792 0 
-799 -86 676 0 
-799 86 742 0 
-800 -59 801 0 
-800 59 804 0 
-801 -64 802 0 
-801 64 0 
-802 -74 792 0 
-802 74 803 0 
-803 -733 747 0 
-803 733 792 0 
-804 -64 805 0 
-804 64 0 
-805 -74 796 0 
-805 74 806 0 
-806 -733 807 0 
-806 733 792 0 
-78 -79 0 
-807 -86 676 0 
-807 86 784 0 
-808 -6 809 0 
-808 6 826 0 
-809 -11 810 0 
-809 11 817 0 
-810 -59 811 0 
-810 59 814 0 
-811 -64 812 0 
-811 64 0 
-812 -74 80 0 
-812 74 813 0 
-813 -733 736 0 
-813 733 729 0 
-814 -64 815 0 
-814 64 0 
-815 -816 744 0 
-815 816 736 0 
-816 -75 0 
-817 -59 746 0 
-817 59 818 0 
-818 -64 819 0 
-818 64 0 
-819 -74 820 0 
-819 74 824 0 
-820 -81 821 0 
-820 81 823 0 
-821 -86 283 0 
-821 86 822 0 
-822 -749 674 0 
-822 749 0 
-823 -86 283 0 
-823 86 787 0 
-824 -733 825 0 
-824 733 786 0 
-825 -86 676 0 
-825 86 748 0 
-826 -11 827 0 
-826 11 836 0 
-80 -81 85 0 
-80 81 729 0 
-827 -59 828 0 
-827 59 832 0 
-828 -64 829 0 
-828 64 0 
-829 -74 792 0 
-829 74 830 0 
-830 -831 729 0 
-830 831 792 0 
-831 734 0 
-832 -64 833 0 
-832 64 0 
-833 -74 796 0 
-833 74 834 0 
-834 -831 835 0 
-834 831 797 0 
-835 -86 731 0 
-835 86 742 0 
-836 -59 837 0 
-836 59 840 0 
-81 82 0 
-837 -64 838 0 
-837 64 0 
-838 -74 792 0 
-838 74 839 0 
-839 -831 747 0 
-839 831 792 0 
-840 -64 841 0 
-840 64 0 
-841 -74 796 0 
-841 74 842 0 
-842 -831 843 0 
-842 831 797 0 
-843 -86 731 0 
-843 86 784 0 
-82 -83 0 
-83 -84 0 
-85 -86 283 0 
-85 86 642 0 
-86 271 0 
-86 87 0 
-6 -7 0 
-87 259 0 
-87 88 0 
-88 247 0 
-88 89 0 
-89 235 0 
-89 90 0 
-90 223 0 
-90 91 0 
-91 211 0 
-91 92 0 
-92 199 0 
-92 93 0 
-93 187 0 
-93 94 0 
-94 175 0 
-94 95 0 
-95 163 0 
-95 96 0 
-96 97 0 
-96 151 0 
7 8 0 
97 -98 -139 0 
98 -99 -127 0 
99 -100 -115 0 
100 -101 -107 0 
101 102 0 
102 -103 0 
103 -104 27 0 
103 -27 104 0 
104 105 0 
105 106 0 
8 9 0 
107 108 0 
108 -109 114 0 
108 -114 109 0 
109 -110 29 0 
109 -29 110 0 
110 -111 113 0 
110 -113 111 0 
111 112 0 
113 -105 0 
114 -27 -104 0 
115 116 0 
116 -117 122 0 
116 -122 117 0 
117 -118 31 0 
117 -31 118 0 
118 -119 121 0 
118 -121 119 0 
119 120 0 
121 -111 -113 0 
122 -123 0 
122 -126 0 
123 -124 0 
123 -125 0 
124 -29 -110 0 
125 -110 -114 0 
126 -29 -114 0 
10 -11 -58 0 
10 -58 -745 0 
10 11 -745 0 
127 128 0 
128 -129 134 0 
128 -134 129 0 
129 -130 33 0 
129 -33 130 0 
130 -131 133 0 
130 -133 131 0 
131 132 0 
133 -119 -121 0 
134 -135 0 
134 -138 0 
135 -136 0 
135 -137 0 
136 -31 -118 0 
11 -12 -56 0 
137 -118 -122 0 
138 -31 -122 0 
139 140 0 
140 -141 146 0 
140 -146 141 0 
141 -142 35 0 
141 -35 142 0 
142 -143 145 0 
142 -145 143 0 
143 144 0 
145 -131 -133 0 
146 -147 0 
146 -150 0 
12 -13 -54 0 
147 -148 0 
147 -149 0 
148 -33 -130 0 
149 -130 -134 0 
150 -33 -134 0 
151 152 0 
152 -153 158 0 
152 -158 153 0 
153 -154 37 0 
153 -37 154 0 
154 -155 157 0 
154 -157 155 0 
155 156 0 
13 -14 -52 0 
157 -143 -145 0 
158 -159 0 
158 -162 0 
159 -160 0 
159 -161 0 
160 -35 -142 0 
161 -142 -146 0 
162 -35 -146 0 
163 164 0 
164 -165 170 0 
164 -170 165 0 
165 -166 39 0 
165 -39 166 0 
166 -167 169 0 
166 -169 167 0 
14 -15 -50 0 
167 168 0 
169 -155 -157 0 
170 -171 0 
170 -174 0 
171 -172 0 
171 -173 0 
172 -37 -154 0 
173 -154 -158 0 
174 -37 -158 0 
175 176 0 
176 -177 182 0 
176 -182 177 0 
15 -16 -48 0 
177 -178 41 0 
177 -41 178 0 
178 -179 181 0 
178 -181 179 0 
179 180 0 
181 -167 -169 0 
182 -183 0 
182 -186 0 
183 -184 0 
183 -185 0 
184 -39 -166 0 
185 -166 -170 0 
186 -39 -170 0 
16 -17 -46 0 
187 188 0 
188 -189 194 0 
188 -194 189 0 
189 -190 43 0 
189 -43 190 0 
190 -191 193 0 
190 -193 191 0 
191 192 0 
193 -179 -181 0 
194 -195 0 
194 -198 0 
195 -196 0 
195 -197 0 
196 -41 -178 0 
1 2 0 
17 -18 -44 0 
197 -178 -182 0 
198 -41 -182 0 
199 200 0 
200 -201 206 0 
200 -206 201 0 
201 -202 45 0 
201 -45 202 0 
202 -203 205 0 
202 -205 203 0 
203 204 0 
205 -191 -193 0 
206 -207 0 
206 -210 0 
18 -19 -42 0 
207 -208 0 
207 -209 0 
208 -43 -190 0 
209 -190 -194 0 
210 -43 -194 0 
211 212 0 
212 -213 218 0 
212 -218 213 0 
213 -214 47 0 
213 -47 214 0 
214 -215 217 0 
214 -217 215 0 
215 216 0 
19 -20 -40 0 
217 -203 -205 0 
218 -219 0 
218 -222 0 
219 -220 0 
219 -221 0 
220 -45 -202 0 
221 -202 -206 0 
222 -45 -206 0 
223 224 0 
224 -225 230 0 
224 -230 225 0 
225 -226 49 0 
225 -49 226 0 
226 -227 229 0 
226 -229 227 0 
20 -21 -38 0 
227 228 0 
229 -215 -217 0 
230 -231 0 
230 -234 0 
231 -232 0 
231 -233 0 
232 -47 -214 0 
233 -214 -218 0 
234 -47 -218 0 
235 236 0 
236 -237 242 0 
236 -242 237 0 
21 -22 -36 0 
237 -238 51 0 
237 -51 238 0 
238 -239 241 0 
238 -241 239 0 
239 240 0 
241 -227 -229 0 
242 -243 0 
242 -246 0 
243 -244 0 
243 -245 0 
244 -49 -226 0 
245 -226 -230 0 
246 -49 -230 0 
22 -23 -34 0 
247 248 0 
248 -249 254 0 
248 -254 249 0 
249 -250 53 0 
249 -53 250 0 
250 -251 253 0 
250 -253 251 0 
251 252 0 
253 -239 -241 0 
254 -255 0 
254 -258 0 
255 -256 0 
255 -257 0 
256 -51 -238 0 
23 -24 -32 0 
257 -238 -242 0 
258 -51 -242 0 
259 260 0 
260 -261 266 0 
260 -266 261 0 
261 -262 55 0 
261 -55 262 0 
262 -263 265 0 
262 -265 263 0 
263 264 0 
265 -251 -253 0 
266 -267 0 
266 -270 0 
24 -25 -30 0 
267 -268 0 
267 -269 0 
268 -53 -250 0 
269 -250 -254 0 
270 -53 -254 0 
271 272 0 
272 -273 278 0 
272 -278 273 0 
273 -274 57 0 
273 -57 274 0 
274 -275 277 0 
274 -277 275 0 
275 276 0 
25 -26 -28 0 
277 -263 -265 0 
278 -279 0 
278 -282 0 
279 -280 0 
279 -281 0 
280 -55 -262 0 
281 -262 -266 0 
282 -55 -266 0 
283 -284 -285 0 
283 -285 -628 0 
283 284 -628 0 
284 82 0 
285 -286 -287 0 
286 -70 0 
26 -27 0 
287 -288 -289 0 
287 -289 -620 0 
287 288 -620 0 
288 77 0 
289 -290 -321 0 
289 -321 -586 0 
289 290 -586 0 
290 -291 -320 0 
291 -292 -319 0 
292 -293 -318 0 
293 -294 -317 0 
294 -295 -316 0 
295 -296 -315 0 
296 -297 -314 0 
2 3 0 
297 -298 -313 0 
298 -299 -312 0 
299 -300 -311 0 
300 -301 -310 0 
301 -302 -309 0 
302 -303 -308 0 
303 -304 -307 0 
304 -305 -306 0 
305 -106 0 
306 -112 0 
28 -29 0 
307 -120 0 
308 -132 0 
309 -144 0 
310 -156 0 
311 -168 0 
312 -180 0 
313 -192 0 
314 -204 0 
315 -216 0 
316 -228 0 
317 -240 0 
318 -252 0 
319 -264 0 
320 -276 0 
321 -322 -331 0 
322 323 0 
323 -324 0 
324 -325 328 0 
324 -328 325 0 
325 326 0 
326 327 0 
30 -31 0 
328 329 0 
329 330 0 
331 -332 -338 0 
331 -338 -580 0 
331 332 -580 0 
332 -333 0 
333 -334 0 
334 -335 77 0 
334 -77 335 0 
335 336 0 
336 337 0 
338 -339 -343 0 
338 -343 -577 0 
338 339 -577 0 
339 -340 0 
340 341 0 
341 342 0 
343 -344 -541 0 
343 -541 -543 0 
343 344 -543 0 
344 -345 -529 0 
345 -346 -517 0 
346 -347 -505 0 
32 -33 0 
347 -348 -493 0 
348 -349 -481 0 
349 -350 -469 0 
350 -351 -457 0 
351 -352 -445 0 
352 -353 -433 0 
353 -354 -421 0 
354 -355 -409 0 
355 -356 -397 0 
356 -357 -385 0 
357 -358 -373 0 
358 -359 -365 0 
359 360 0 
360 -361 0 
361 -106 362 0 
361 -362 106 0 
362 363 0 
363 364 0 
365 366 0 
366 -367 372 0 
366 -372 367 0 
34 -35 0 
367 -112 368 0 
367 -368 112 0 
368 -369 371 0 
368 -371 369 0 
369 370 0 
371 -363 0 
372 -106 -362 0 
373 374 0 
374 -375 380 0 
374 -380 375 0 
375 -120 376 0 
375 -376 120 0 
376 -377 379 0 
376 -379 377 0 
377 378 0 
379 -369 -371 0 
380 -381 0 
380 -384 0 
381 -382 0 
381 -383 0 
382 -112 -368 0 
383 -368 -372 0 
384 -112 -372 0 
385 386 0 
386 -387 392 0 
386 -392 387 0 
36 -37 0 
387 -132 388 0 
387 -388 132 0 
388 -389 391 0 
388 -391 389 0 
389 390 0 
391 -377 -379 0 
392 -393 0 
392 -396 0 
393 -394 0 
393 -395 0 
394 -120 -376 0 
395 -376 -380 0 
396 -120 -380 0 
3 4 0 
397 398 0 
398 -399 404 0 
398 -404 399 0 
399 -144 400 0 
399 -400 144 0 
400 -401 403 0 
400 -403 401 0 
401 402 0 
403 -389 -391 0 
404 -405 0 
404 -408 0 
405 -406 0 
405 -407 0 
406 -132 -388 0 
38 -39 0 
407 -388 -392 0 
408 -132 -392 0 
409 410 0 
410 -411 416 0 
410 -416 411 0 
411 -156 412 0 
411 -412 156 0 
412 -413 415 0 
412 -415 413 0 
413 414 0 
415 -401 -403 0 
416 -417 0 
416 -420 0 
417 -418 0 
417 -419 0 
418 -144 -400 0 
419 -400 -404 0 
420 -144 -404 0 
421 422 0 
422 -423 428 0 
422 -428 423 0 
423 -168 424 0 
423 -424 168 0 
424 -425 427 0 
424 -427 425 0 
425 426 0 
40 -41 0 
427 -413 -415 0 
428 -429 0 
428 -432 0 
429 -430 0 
429 -431 0 
430 -156 -412 0 
431 -412 -416 0 
432 -156 -416 0 
433 434 0 
434 -435 440 0 
434 -440 435 0 
435 -180 436 0 
435 -436 180 0 
436 -437 439 0 
436 -439 437 0 
437 438 0 
439 -425 -427 0 
440 -441 0 
440 -444 0 
441 -442 0 
441 -443 0 
442 -168 -424 0 
443 -424 -428 0 
444 -168 -428 0 
445 446 0 
446 -447 452 0 
446 -452 447 0 
42 -43 0 
447 -192 448 0 
447 -448 192 0 
448 -449 451 0 
448 -451 449 0 
449 450 0 
451 -437 -439 0 
452 -453 0 
452 -456 0 
453 -454 0 
453 -455 0 
454 -180 -436 0 
455 -436 -440 0 
456 -180 -440 0 
457 458 0 
458 -459 464 0 
458 -464 459 0 
459 -204 460 0 
459 -460 204 0 
460 -461 463 0 
460 -463 461 0 
461 462 0 
463 -449 -451 0 
464 -465 0 
464 -468 0 
465 -466 0 
465 -467 0 
466 -192 -448 0 
44 -45 0 
467 -448 -452 0 
468 -192 -452 0 
469 470 0 
470 -471 476 0 
470 -476 471 0 
471 -216 472 0 
471 -472 216 0 
472 -473 475 0 
472 -475 473 0 
473 474 0 
475 -461 -463 0 
476 -477 0 
476 -480 0 
477 -478 0 
477 -479 0 
478 -204 -460 0 
479 -460 -464 0 
480 -204 -464 0 
481 482 0 
482 -483 488 0 
482 -488 483 0 
483 -228 484 0 
483 -484 228 0 
484 -485 487 0 
484 -487 485 0 
485 486 0 
46 -47 0 
487 -473 -475 0 
488 -489 0 
488 -492 0 
489 -490 0 
489 -491 0 
490 -216 -472 0 
491 -472 -476 0 
492 -216 -476 0 
493 494 0 
494 -495 500 0 
494 -500 495 0 
495 -240 496 0 
495 -496 240 0 
496 -497 499 0 
496 -499 497 0 
497 498 0 
499 -485 -487 0 
500 -501 0 
500 -504 0 
501 -502 0 
501 -503 0 
502 -228 -484 0 
503 -484 -488 0 
504 -228 -488 0 
505 506 0 
506 -507 512 0 
506 -512 507 0 
48 -49 0 
507 -252 508 0 
507 -508 252 0 
508 -509 511 0 
508 -511 509 0 
509 510 0 
511 -497 -499 0 
512 -513 0 
512 -516 0 
513 -514 0 
513 -515 0 
514 -240 -496 0 
515 -496 -500 0 
516 -240 -500 0 
517 518 0 
518 -519 524 0 
518 -524 519 0 
519 -264 520 0 
519 -520 264 0 
520 -521 523 0 
520 -523 521 0 
521 522 0 
523 -509 -511 0 
524 -525 0 
524 -528 0 
525 -526 0 
525 -527 0 
526 -252 -508 0 
50 -51 0 
527 -508 -512 0 
528 -252 -512 0 
529 530 0 
530 -531 536 0 
530 -536 531 0 
531 -276 532 0 
531 -532 276 0 
532 -533 535 0 
532 -535 533 0 
533 534 0 
535 -521 -523 0 
536 -537 0 
536 -540 0 
537 -538 0 
537 -539 0 
538 -264 -520 0 
539 -520 -524 0 
540 -264 -524 0 
541 -542 0 
542 -328 0 
543 -544 -575 0 
544 -545 -574 0 
545 -546 -573 0 
546 -547 -572 0 
52 -53 0 
547 -548 -571 0 
548 -549 -570 0 
549 -550 -569 0 
550 -551 -568 0 
551 -552 -567 0 
552 -553 -566 0 
553 -554 -565 0 
554 -555 -564 0 
555 -556 -563 0 
556 -557 -562 0 
557 -558 -561 0 
558 -559 -560 0 
559 364 0 
560 370 0 
561 378 0 
562 390 0 
563 402 0 
564 414 0 
565 426 0 
566 438 0 
54 -55 0 
567 450 0 
568 462 0 
569 474 0 
570 486 0 
571 498 0 
572 510 0 
573 522 0 
574 534 0 
575 576 0 
576 328 0 
577 -344 -541 0 
577 -541 -578 0 
577 344 -578 0 
578 -544 -579 0 
579 -576 0 
580 -577 -584 0 
580 -581 -577 0 
580 581 -584 0 
581 582 0 
582 -583 0 
583 -340 82 0 
583 -82 340 0 
584 -344 -541 0 
584 -541 -585 0 
584 344 -585 0 
585 -544 -541 0 
586 -322 -587 0 
56 -57 0 
587 -344 -541 0 
587 -541 -588 0 
587 344 -588 0 
588 -589 -541 0 
589 -590 -619 0 
590 -591 -618 0 
591 -592 -617 0 
592 -593 -616 0 
593 -594 -615 0 
594 -595 -614 0 
595 -596 -613 0 
596 -597 -612 0 
597 -598 -611 0 
598 -599 -610 0 
599 -600 -609 0 
600 -601 -608 0 
601 -602 -607 0 
602 -603 -606 0 
603 -604 -605 0 
604 -360 0 
605 -366 0 
606 -374 0 
58 -59 -63 0 
58 -63 -738 0 
58 59 -738 0 
607 -386 0 
608 -398 0 
609 -410 0 
610 -422 0 
611 -434 0 
612 -446 0 
613 -458 0 
614 -470 0 
615 -482 0 
616 -494 0 
59 -60 0 
617 -506 0 
618 -518 0 
619 -530 0 
620 -290 -621 0 
620 -621 -625 0 
620 290 -625 0 
621 -322 -622 0 
622 -332 -623 0 
622 -623 -624 0 
622 332 -624 0 
623 -344 -541 0 
624 -577 -623 0 
624 -581 -577 0 
624 581 -623 0 
625 -322 -626 0 
626 -332 -623 0 
626 -623 -627 0 
626 332 -627 0 
60 61 0 
627 -581 -587 0 
627 -587 -623 0 
627 581 -623 0 
628 -286 -629 0 
629 -288 -630 0 
629 -630 -634 0 
629 288 -634 0 
630 -290 -631 0 
630 -631 -586 0 
630 290 -586 0 
631 -322 -632 0 
632 -332 -338 0 
632 -338 -633 0 
632 332 -633 0 
633 -581 -584 0 
633 -584 -577 0 
633 581 -577 0 
634 -290 -635 0 
634 -635 -639 0 
634 290 -639 0 
635 -322 -636 0 
636 -332 -623 0 
636 -623 -637 0 
636 332 -637 0 
61 62 0 
637 -577 -623 0 
637 -638 -577 0 
637 638 -623 0 
638 -582 0 
639 -322 -640 0 
640 -332 -623 0 
640 -623 -641 0 
640 332 -641 0 
641 -587 -623 0 
641 -638 -587 0 
641 638 -623 0 
642 -643 -674 0 
643 -644 -673 0 
644 -645 -672 0 
645 -646 -671 0 
646 -647 -670 0 
647 -648 -669 0 
648 -649 -668 0 
649 -650 -667 0 
650 -651 -666 0 
651 -652 -665 0 
652 -653 -664 0 
653 -654 -663 0 
654 -655 -662 0 
655 -656 -661 0 
656 -657 -660 0 
63 -64 -73 0 
657 -658 -659 0 
658 106 0 
659 112 0 
660 120 0 
661 132 0 
662 144 0 
663 156 0 
664 168 0 
665 180 0 
666 192 0 
64 65 0 
667 204 0 
668 216 0 
669 228 0 
670 240 0 
671 252 0 
672 264 0 
673 276 0 
674 675 -676 0 
675 70 0 
676 -284 -677 0 
676 -677 -706 0 
676 284 -706 0 
65 -66 0 
677 -286 -287 0 
677 -287 -678 0 
677 286 -678 0 
678 -288 -679 0 
678 -679 -695 0 
678 288 -695 0 
679 -290 -680 0 
679 -680 -687 0 
679 290 -687 0 
680 -322 -681 0 
681 -332 -682 0 
681 -682 -685 0 
681 332 -685 0 
682 -339 -584 0 
682 -584 -683 0 
682 339 -683 0 
683 -344 -541 0 
683 -541 -684 0 
683 344 -684 0 
684 -544 0 
685 -581 -686 0 
685 -686 -584 0 
685 581 -584 0 
686 -344 0 
686 -585 0 
686 344 -585 0 
66 -67 70 0 
66 -70 67 0 
687 -322 -688 0 
688 -332 -689 0 
688 -689 -692 0 
688 332 -692 0 
689 -339 -587 0 
689 -587 -690 0 
689 339 -690 0 
690 -344 -541 0 
690 -541 -691 0 
690 344 -691 0 
691 -589 0 
692 -581 -693 0 
692 -693 -587 0 
692 581 -587 0 
693 -344 0 
693 -694 0 
693 344 -694 0 
694 -589 -579 0 
695 -290 -696 0 
695 -696 -702 0 
695 290 -702 0 
696 -322 -697 0 
67 68 0 
697 -332 -698 0 
697 -698 -700 0 
697 332 -700 0 
698 -339 -623 0 
698 -623 -699 0 
698 339 -699 0 
699 -344 0 
700 -581 -701 0 
700 -701 -623 0 
700 581 -623 0 
701 -344 0 
701 -684 0 
701 344 -684 0 
702 -322 -703 0 
703 -332 -698 0 
703 -698 -704 0 
703 332 -704 0 
704 -581 -705 0 
704 -705 -623 0 
704 581 -623 0 
705 -344 0 
705 -691 0 
705 344 -691 0 
706 -286 -629 0 
706 -629 -707 0 
706 286 -707 0 
68 69 0 
707 -288 -708 0 
707 -708 -720 0 
707 288 -720 0 
708 -290 -709 0 
708 -709 -712 0 
708 290 -712 0 
709 -322 -710 0 
710 -686 -584 0 
710 -711 -686 0 
710 711 -584 0 
711 333 0 
712 -322 -713 0 
713 -332 -714 0 
713 -714 -718 0 
713 332 -718 0 
714 -339 -715 0 
714 -715 -717 0 
714 339 -717 0 
715 -344 -541 0 
715 -541 -716 0 
715 344 -716 0 
716 -589 -575 0 
717 -344 -541 0 
717 -541 -694 0 
717 344 -694 0 
718 -581 -719 0 
718 -719 -693 0 
718 581 -693 0 
719 -344 0 
719 -588 0 
719 344 -588 0 
720 -290 -721 0 
720 -721 -725 0 
720 290 -725 0 
721 -322 -722 0 
722 -332 -698 0 
722 -698 -723 0 
722 332 -723 0 
723 -638 -724 0 
723 -724 -699 0 
723 638 -699 0 
724 -344 -579 0 
724 -579 -684 0 
724 344 -684 0 
725 -322 -726 0 
726 -332 -698 0 
726 -698 -727 0 
726 332 -727 0 
70 71 0 
727 -638 -728 0 
727 -728 -699 0 
727 638 -699 0 
728 -344 -579 0 
728 -579 -691 0 
728 344 -691 0 
729 -283 -730 0 
729 -86 -283 0 
729 86 -730 0 
730 -643 -731 0 
731 -675 -676 0 
732 -729 -736 0 
732 -733 -729 0 
732 733 -736 0 
733 734 0 
734 -735 0 
735 -2 82 0 
735 -82 2 0 
736 -283 -737 0 
736 -86 -283 0 
736 86 -737 0 
71 72 0 
737 -643 -283 0 
738 -64 -739 0 
739 -740 -743 0 
739 -74 -740 0 
739 74 -743 0 
740 -736 -741 0 
740 -81 -736 0 
740 81 -741 0 
741 -283 -742 0 
741 -86 -283 0 
741 86 -742 0 
742 -643 -676 0 
743 -733 -744 0 
743 -744 -736 0 
743 733 -736 0 
744 -676 -737 0 
744 -86 -676 0 
744 86 -737 0 
745 -59 -746 0 
745 -746 -780 0 
745 59 -780 0 
746 -64 -747 0 
747 -283 -748 0 
747 -86 -283 0 
747 86 -748 0 
748 -749 -283 0 
749 -750 -779 0 
750 -751 -778 0 
751 -752 -777 0 
752 -753 -776 0 
753 -754 -775 0 
754 -755 -774 0 
755 -756 -773 0 
756 -757 -772 0 
73 -74 -80 0 
73 -80 -732 0 
73 74 -732 0 
757 -758 -771 0 
758 -759 -770 0 
759 -760 -769 0 
760 -761 -768 0 
761 -762 -767 0 
762 -763 -766 0 
763 -764 -765 0 
764 -102 0 
765 -108 0 
766 -116 0 
74 -75 0 
767 -128 0 
768 -140 0 
769 -152 0 
770 -164 0 
771 -176 0 
772 -188 0 
773 -200 0 
774 -212 0 
775 -224 0 
776 -236 0 
75 -76 0 
777 -248 0 
778 -260 0 
779 -272 0 
780 -64 -781 0 
781 -74 -782 0 
781 -782 -785 0 
781 74 -785 0 
782 -747 -783 0 
782 -81 -747 0 
782 81 -783 0 
783 -283 -784 0 
783 -86 -283 0 
783 86 -784 0 
784 -749 -676 0 
785 -733 -786 0 
785 -786 -747 0 
785 733 -747 0 
786 -676 -787 0 
786 -86 -676 0 
786 86 -787 0 
76 -7 77 0 
76 -77 7 0 
787 -749 -731 0 
788 -11 -789 0 
788 -789 -800 0 
788 11 -800 0 
789 -59 -790 0 
789 -790 -794 0 
789 59 -794 0 
790 -64 -791 0 
791 -74 -792 0 
791 -792 -793 0 
791 74 -793 0 
792 -86 -283 0 
793 -729 -792 0 
793 -733 -729 0 
793 733 -792 0 
794 -64 -795 0 
795 -74 -796 0 
795 -796 -798 0 
795 74 -798 0 
796 -792 -797 0 
796 -81 -792 0 
796 81 -797 0 
5 -10 -788 0 
5 -6 -10 0 
5 6 -788 0 
77 78 0 
797 -86 -676 0 
798 -733 -799 0 
798 -799 -792 0 
798 733 -792 0 
799 -676 -742 0 
799 -86 -676 0 
799 86 -742 0 
800 -59 -801 0 
800 -801 -804 0 
800 59 -804 0 
801 -64 -802 0 
802 -74 -792 0 
802 -792 -803 0 
802 74 -803 0 
803 -733 -747 0 
803 -747 -792 0 
803 733 -792 0 
804 -64 -805 0 
805 -74 -796 0 
805 -796 -806 0 
805 74 -806 0 
806 -733 -807 0 
806 -807 -792 0 
806 733 -792 0 
78 79 0 
807 -676 -784 0 
807 -86 -676 0 
807 86 -784 0 
808 -809 -826 0 
808 -6 -809 0 
808 6 -826 0 
809 -11 -810 0 
809 -810 -817 0 
809 11 -817 0 
810 -59 -811 0 
810 -811 -814 0 
810 59 -814 0 
811 -64 -812 0 
812 -74 -80 0 
812 -80 -813 0 
812 74 -813 0 
813 -733 -736 0 
813 -736 -729 0 
813 733 -729 0 
814 -64 -815 0 
815 -744 -736 0 
815 -816 -744 0 
815 816 -736 0 
816 75 0 
817 -59 -746 0 
817 -746 -818 0 
817 59 -818 0 
818 -64 -819 0 
819 -74 -820 0 
819 -820 -824 0 
819 74 -824 0 
820 -821 -823 0 
820 -81 -821 0 
820 81 -823 0 
821 -283 -822 0 
821 -86 -283 0 
821 86 -822 0 
822 -749 -674 0 
823 -283 -787 0 
823 -86 -283 0 
823 86 -787 0 
824 -733 -825 0 
824 -825 -786 0 
824 733 -786 0 
825 -676 -748 0 
825 -86 -676 0 
825 86 -748 0 
826 -11 -827 0 
826 -827 -836 0 
826 11 -836 0 
80 -81 -85 0 
80 -85 -729 0 
80 81 -729 0 
827 -59 -828 0 
827 -828 -832 0 
827 59 -832 0 
828 -64 -829 0 
829 -74 -792 0 
829 -792 -830 0 
829 74 -830 0 
830 -729 -792 0 
830 -831 -729 0 
830 831 -792 0 
831 -734 0 
832 -64 -833 0 
833 -74 -796 0 
833 -796 -834 0 
833 74 -834 0 
834 -831 -835 0 
834 -835 -797 0 
834 831 -797 0 
835 -731 -742 0 
835 -86 -731 0 
835 86 -742 0 
836 -59 -837 0 
836 -837 -840 0 
836 59 -840 0 
81 -82 0 
837 -64 -838 0 
838 -74 -792 0 
838 -792 -839 0 
838 74 -839 0 
839 -747 -792 0 
839 -831 -747 0 
839 831 -792 0 
840 -64 -841 0 
841 -74 -796 0 
841 -796 -842 0 
841 74 -842 0 
842 -831 -843 0 
842 -843 -797 0 
842 831 -797 0 
843 -731 -784 0 
843 -86 -731 0 
843 86 -784 0 
82 83 0 
83 84 0 
85 -283 -642 0 
85 -86 -283 0 
85 86 -642 0 
86 -87 -271 0 
6 7 0 
87 -88 -259 0 
88 -89 -247 0 
89 -90 -235 0 
90 -91 -223 0 
91 -92 -211 0 
92 -93 -199 0 
93 -94 -187 0 
94 -95 -175 0 
95 -96 -163 0 
96 -97 -151 0 
